benchmarks_CP/INST_36x36/25/inst36x36_25_61.dzn
S=6;
start=[|
-1,	-1,	-1,	-1,	-1,	35,	-1,	-1,	-1,	7,	10,	5,	-1,	26,	-1,	-1,	-1,	24,	-1,	-1,	-1,	-1,	-1,	-1,	-1,	-1,	-1,	-1,	17,	-1,	-1,	-1,	30,	-1,	32,	-1|
-1,	-1,	-1,	25,	-1,	-1,	-1,	-1,	-1,	-1,	-1,	-1,	27,	14,	-1,	-1,	-1,	-1,	-1,	-1,	-1,	36,	-1,	-1,	30,	-1,	-1,	-1,	5,	23,	-1,	18,	24,	-1,	-1,	-1|
-1,	-1,	-1,	-1,	-1,	-1,	-1,	6,	-1,	25,	-1,	-1,	-1,	-1,	-1,	-1,	-1,	-1,	-1,	2,	-1,	-1,	28,	-1,	-1,	-1,	21,	-1,	-1,	31,	-1,	-1,	26,	13,	34,	-1|
-1,	32,	24,	6,	-1,	18,	34,	-1,	-1,	-1,	-1,	31,	12,	-1,	-1,	21,	-1,	-1,	-1,	-1,	-1,	-1,	-1,	4,	-1,	7,	-1,	-1,	-1,	-1,	9,	-1,	-1,	35,	-1,	15|
-1,	-1,	-1,	8,	-1,	36,	-1,	29,	-1,	-1,	-1,	12,	-1,	-1,	-1,	17,	-1,	-1,	-1,	-1,	-1,	-1,	-1,	35,	-1,	-1,	-1,	19,	34,	-1,	-1,	-1,	-1,	-1,	-1,	-1|
-1,	-1,	15,	-1,	-1,	-1,	-1,	-1,	-1,	-1,	22,	-1,	-1,	-1,	-1,	-1,	-1,	-1,	-1,	-1,	-1,	-1,	-1,	-1,	-1,	-1,	-1,	-1,	-1,	26,	-1,	-1,	-1,	-1,	29,	-1|
-1,	-1,	-1,	22,	-1,	-1,	-1,	20,	31,	26,	-1,	-1,	10,	-1,	18,	-1,	-1,	-1,	-1,	-1,	-1,	19,	-1,	-1,	-1,	-1,	-1,	33,	-1,	-1,	15,	12,	-1,	-1,	-1,	-1|
-1,	36,	-1,	-1,	34,	-1,	-1,	24,	15,	13,	14,	33,	-1,	-1,	-1,	-1,	-1,	9,	-1,	-1,	20,	-1,	31,	8,	-1,	-1,	11,	-1,	-1,	7,	-1,	-1,	21,	-1,	-1,	-1|
1,	25,	4,	2,	-1,	-1,	-1,	10,	-1,	17,	-1,	-1,	-1,	32,	-1,	15,	26,	-1,	9,	-1,	-1,	-1,	5,	-1,	-1,	-1,	-1,	13,	-1,	-1,	-1,	-1,	-1,	-1,	-1,	31|
19,	-1,	-1,	-1,	12,	-1,	-1,	-1,	-1,	34,	-1,	-1,	-1,	-1,	-1,	-1,	-1,	-1,	-1,	-1,	-1,	-1,	-1,	-1,	9,	-1,	-1,	-1,	-1,	-1,	-1,	-1,	-1,	-1,	-1,	1|
-1,	-1,	-1,	-1,	-1,	-1,	-1,	-1,	-1,	-1,	32,	-1,	-1,	21,	-1,	34,	6,	-1,	-1,	-1,	-1,	-1,	-1,	28,	-1,	-1,	31,	18,	-1,	-1,	-1,	-1,	-1,	-1,	-1,	-1|
-1,	-1,	-1,	-1,	-1,	31,	-1,	-1,	30,	-1,	-1,	-1,	-1,	-1,	-1,	3,	-1,	5,	-1,	-1,	-1,	-1,	-1,	-1,	-1,	15,	17,	-1,	-1,	-1,	-1,	33,	-1,	-1,	-1,	-1|
-1,	-1,	-1,	-1,	4,	-1,	5,	-1,	-1,	22,	15,	7,	-1,	-1,	-1,	-1,	9,	-1,	28,	30,	-1,	-1,	-1,	-1,	6,	-1,	25,	-1,	-1,	20,	-1,	13,	-1,	16,	-1,	-1|
-1,	7,	-1,	-1,	-1,	1,	-1,	-1,	-1,	-1,	-1,	-1,	-1,	-1,	-1,	-1,	-1,	10,	27,	20,	-1,	-1,	18,	-1,	28,	11,	-1,	-1,	-1,	-1,	19,	-1,	4,	-1,	35,	-1|
-1,	-1,	11,	-1,	-1,	-1,	9,	-1,	-1,	-1,	-1,	-1,	-1,	-1,	-1,	23,	14,	-1,	-1,	-1,	-1,	-1,	24,	36,	-1,	-1,	-1,	-1,	1,	-1,	7,	-1,	5,	-1,	-1,	-1|
-1,	12,	-1,	20,	-1,	-1,	-1,	-1,	-1,	-1,	8,	-1,	-1,	-1,	-1,	-1,	-1,	-1,	2,	-1,	26,	-1,	-1,	-1,	-1,	-1,	-1,	-1,	-1,	-1,	-1,	-1,	-1,	-1,	15,	3|
18,	14,	22,	-1,	-1,	-1,	-1,	30,	-1,	36,	-1,	-1,	21,	29,	-1,	-1,	-1,	-1,	-1,	-1,	5,	-1,	6,	-1,	-1,	-1,	-1,	9,	-1,	-1,	8,	-1,	-1,	-1,	-1,	26|
-1,	-1,	-1,	26,	-1,	-1,	-1,	-1,	-1,	-1,	-1,	-1,	20,	-1,	-1,	-1,	-1,	13,	-1,	-1,	25,	-1,	-1,	-1,	-1,	-1,	-1,	-1,	10,	-1,	-1,	-1,	-1,	-1,	-1,	-1|
-1,	5,	-1,	27,	1,	-1,	-1,	-1,	-1,	-1,	-1,	-1,	-1,	-1,	-1,	-1,	-1,	-1,	-1,	-1,	9,	-1,	-1,	-1,	-1,	-1,	-1,	-1,	19,	-1,	-1,	-1,	-1,	-1,	-1,	-1|
-1,	-1,	-1,	-1,	-1,	20,	-1,	-1,	-1,	-1,	-1,	-1,	-1,	-1,	-1,	-1,	-1,	-1,	-1,	-1,	-1,	24,	7,	29,	-1,	-1,	-1,	-1,	8,	-1,	-1,	36,	-1,	-1,	13,	-1|
-1,	-1,	19,	-1,	-1,	-1,	-1,	-1,	-1,	-1,	34,	-1,	-1,	-1,	-1,	-1,	-1,	-1,	-1,	36,	-1,	25,	-1,	-1,	-1,	-1,	-1,	28,	-1,	-1,	-1,	-1,	-1,	-1,	8,	-1|
7,	-1,	8,	-1,	-1,	-1,	-1,	-1,	-1,	6,	-1,	24,	1,	-1,	-1,	-1,	-1,	12,	-1,	-1,	10,	3,	-1,	-1,	32,	21,	-1,	-1,	-1,	27,	5,	17,	-1,	29,	31,	-1|
-1,	13,	-1,	-1,	-1,	-1,	14,	-1,	-1,	-1,	-1,	-1,	-1,	-1,	-1,	-1,	-1,	-1,	-1,	1,	-1,	-1,	-1,	-1,	-1,	-1,	-1,	-1,	-1,	35,	22,	-1,	-1,	-1,	-1,	32|
-1,	-1,	-1,	11,	-1,	-1,	-1,	-1,	-1,	-1,	-1,	17,	-1,	-1,	-1,	-1,	-1,	-1,	8,	-1,	-1,	-1,	22,	-1,	-1,	10,	-1,	2,	3,	14,	-1,	-1,	-1,	-1,	-1,	4|
-1,	-1,	-1,	21,	31,	7,	-1,	1,	-1,	23,	-1,	-1,	-1,	-1,	10,	12,	-1,	2,	-1,	-1,	29,	-1,	14,	-1,	-1,	36,	26,	-1,	9,	-1,	-1,	-1,	-1,	11,	-1,	-1|
8,	1,	-1,	-1,	10,	3,	-1,	2,	-1,	-1,	26,	15,	-1,	4,	-1,	35,	-1,	-1,	-1,	-1,	-1,	31,	-1,	-1,	-1,	23,	-1,	-1,	11,	-1,	-1,	-1,	22,	-1,	-1,	-1|
-1,	-1,	30,	-1,	-1,	-1,	36,	31,	-1,	-1,	-1,	8,	-1,	-1,	-1,	-1,	-1,	26,	21,	-1,	22,	-1,	-1,	-1,	-1,	-1,	19,	-1,	25,	-1,	23,	-1,	-1,	-1,	-1,	-1|
-1,	22,	-1,	-1,	-1,	-1,	-1,	-1,	-1,	24,	-1,	-1,	31,	-1,	-1,	-1,	33,	30,	-1,	-1,	-1,	-1,	25,	-1,	-1,	-1,	-1,	-1,	-1,	-1,	-1,	-1,	-1,	26,	-1,	-1|
-1,	28,	-1,	-1,	-1,	-1,	-1,	-1,	5,	-1,	-1,	-1,	-1,	-1,	27,	32,	-1,	14,	-1,	-1,	-1,	26,	36,	-1,	-1,	13,	-1,	31,	-1,	-1,	21,	-1,	-1,	-1,	-1,	-1|
12,	29,	-1,	9,	-1,	-1,	25,	-1,	-1,	-1,	-1,	-1,	-1,	-1,	-1,	20,	-1,	-1,	-1,	11,	34,	28,	-1,	-1,	-1,	-1,	14,	-1,	-1,	-1,	-1,	24,	6,	-1,	-1,	-1|
-1,	23,	-1,	-1,	-1,	-1,	27,	-1,	-1,	-1,	24,	-1,	11,	33,	26,	-1,	-1,	-1,	-1,	-1,	-1,	-1,	15,	-1,	-1,	9,	20,	25,	-1,	-1,	-1,	-1,	-1,	5,	-1,	-1|
27,	-1,	7,	-1,	-1,	-1,	-1,	-1,	-1,	-1,	29,	-1,	-1,	-1,	-1,	-1,	5,	-1,	24,	9,	-1,	-1,	-1,	-1,	19,	2,	-1,	-1,	-1,	-1,	31,	-1,	-1,	-1,	-1,	-1|
-1,	-1,	-1,	-1,	-1,	-1,	-1,	-1,	-1,	-1,	-1,	-1,	-1,	-1,	-1,	-1,	35,	-1,	-1,	26,	-1,	22,	-1,	31,	-1,	-1,	-1,	-1,	-1,	-1,	-1,	-1,	-1,	-1,	-1,	-1|
20,	21,	-1,	-1,	-1,	-1,	-1,	-1,	-1,	-1,	31,	4,	3,	18,	-1,	-1,	-1,	-1,	-1,	-1,	-1,	32,	-1,	-1,	-1,	-1,	-1,	-1,	-1,	-1,	-1,	-1,	-1,	-1,	-1,	-1|
-1,	-1,	-1,	31,	-1,	-1,	-1,	-1,	-1,	11,	12,	-1,	15,	-1,	6,	-1,	-1,	-1,	-1,	-1,	-1,	-1,	-1,	23,	-1,	-1,	-1,	-1,	4,	-1,	-1,	-1,	32,	-1,	-1,	-1|
-1,	3,	-1,	-1,	11,	-1,	10,	8,	-1,	-1,	-1,	-1,	-1,	-1,	-1,	25,	-1,	19,	-1,	-1,	-1,	-1,	-1,	-1,	35,	-1,	-1,	-1,	-1,	-1,	-1,	-1,	-1,	-1,	-1,	-1|];
